db/data/13034170266079799386221801408923988.z3.out
sat
-------------------
251.040552241
